PointerNetwork/Ptr_Net_TSPTW/benchmark/n20w80/n20w80.005.txt
!! n20w80.005    85.75 322


CUST NO.   XCOORD.   YCOORD.    DEMAND   READY TIME   DUE DATE   SERVICE TIME


    1      20.00      17.00       0.00       0.00     351.00       0.00
    2      17.00      39.00       0.00       8.00     112.00       0.00
    3      44.00      36.00       0.00     176.00     248.00       0.00
    4      22.00      16.00       0.00       0.00      52.00       0.00
    5      13.00       2.00       0.00      72.00     194.00       0.00
    6       8.00      12.00       0.00     103.00     181.00       0.00
    7      11.00      20.00       0.00      28.00      45.00       0.00
    8       3.00       4.00       0.00     122.00     191.00       0.00
    9      16.00      40.00       0.00      31.00     155.00       0.00
   10      22.00      24.00       0.00       0.00      80.00       0.00
   11      23.00      27.00       0.00       0.00      84.00       0.00
   12      28.00      43.00       0.00     163.00     276.00       0.00
   13       4.00       6.00       0.00      61.00     131.00       0.00
   14       9.00      30.00       0.00      30.00     117.00       0.00
   15       2.00       7.00       0.00      68.00     189.00       0.00
   16      36.00      20.00       0.00     108.00     184.00       0.00
   17       1.00      39.00       0.00      40.00     120.00       0.00
   18      37.00      28.00       0.00     277.00     331.00       0.00
   19       5.00       3.00       0.00     177.00     327.00       0.00
   20      23.00      41.00       0.00       0.00     118.00       0.00
   21      33.00      35.00       0.00     283.00     327.00       0.00
  999       0.00       0.00       0.00       0.00       0.00       0.00