PointerNetwork/Ptr_Net_TSPTW/benchmark/n20w80/n20w80.005.txt.solution
1 4 7 10 11 20 2 9 17 14 6 15 13 8 5 16 3 12 18 21 19 
264
